50
1000 1000
1 789 700
2 768 825
3 751 266
4 732 621
5 725 671
6 725 208
7 713 790
8 704 691
9 699 703
10 698 418
11 665 222
12 665 550
13 660 103
14 622 273
15 620 49
16 595 750
17 593 995
18 582 197
19 576 883
20 566 921
21 557 535
22 553 365
23 534 201
24 523 924
25 522 140
26 500 544
27 490 405
28 488 646
29 474 780
30 474 198
31 462 14
32 458 620
33 456 997
34 442 921
35 441 507
36 433 367
37 422 277
38 407 556
39 383 496
40 365 198
41 323 786
42 312 914
43 281 417
44 271 118
45 262 39
46 232 172
47 231 704
48 221 895
49 205 947
50 204 793
